num_tasks=12;
num_machines=3;
comp_cost=[|0, 0, 0, 
|52, 80, 57,
|80, 61, 101,
|121, 125, 139,
|64, 65, 103,
|89, 124, 95,
|130, 91, 51,
|146, 114, 101,
|88, 149, 112,
|139, 110, 104,
|131, 81, 108,
|0, 0, 0|];
comm_cost=[|0,0,0,0,0,0,0,0,0,0,0,0,
|0,0,96,129,148,137,55,57,0,0,0,0,
|0,0,0,0,62,99,0,0,0,117,0,0,
|0,0,0,0,0,129,0,0,0,68,148,0,
|0,0,0,0,0,145,114,0,0,0,0,0,
|0,0,0,0,0,0,0,0,0,0,0,0,
|0,0,0,0,0,0,0,0,0,0,0,0,
|0,0,0,0,0,0,0,0,0,0,0,0,
|0,0,64,123,0,55,0,0,0,145,94,0,
|0,0,0,0,137,99,120,0,0,0,0,0,
|0,0,0,0,0,0,0,0,0,0,0,0,
|0,0,0,0,0,0,0,0,0,0,0,0|];
max_time=5000;
